30
5
3005005
0
0
54 89 90 7 40 
1
0
55 84 89 13 36 
2
0
57 91 88 13 37 
3
0
49 88 90 12 36 
4
0
52 83 92 12 45 
5
0
50 86 87 14 39 
6
0
56 86 87 6 42 
7
0
48 88 87 5 42 
8
0
56 83 84 11 44 
9
0
54 88 86 11 36 
10
0
55 84 94 7 41 
11
0
47 83 90 10 38 
12
0
51 89 84 7 40 
13
0
52 87 89 12 43 
14
0
55 88 90 9 36 
15
0
49 86 85 7 39 
16
0
48 91 89 14 38 
17
0
57 87 85 6 45 
18
0
49 89 90 7 37 
19
0
51 86 89 11 43 
20
0
51 86 90 7 46 
21
0
55 87 94 7 36 
22
0
50 83 85 6 39 
23
0
55 93 87 8 36 
24
0
53 84 91 4 42 
25
0
57 89 94 11 36 
26
0
55 92 94 9 43 
27
0
48 84 92 13 37 
28
0
49 83 90 13 39 
29
0
54 91 90 8 45 
